143
82.0 70.0 
232.0 251.0 
292.0 306.0 
267.0 225.0 
152.0 164.0 
152.0 164.0 
139.0 72.0 
82.0 70.0 
232.0 251.0 
292.0 306.0 
267.0 225.0 
152.0 164.0 
152.0 164.0 
139.0 72.0 
139.0 72.0 
82.0 70.0 
232.0 251.0 
292.0 306.0 
267.0 225.0 
152.0 164.0 
152.0 164.0 
139.0 72.0 
82.0 70.0 
232.0 251.0 
292.0 306.0 
267.0 225.0 
152.0 164.0 
152.0 164.0 
139.0 72.0 
139.0 72.0 
82.0 70.0 
232.0 251.0 
292.0 306.0 
267.0 225.0 
152.0 164.0 
152.0 164.0 
139.0 72.0 
82.0 70.0 
292.0 306.0 
232.0 251.0 
267.0 225.0 
139.0 72.0 
152.0 164.0 
152.0 164.0 
139.0 72.0 
82.0 70.0 
292.0 306.0 
232.0 251.0 
267.0 225.0 
152.0 164.0 
152.0 164.0 
139.0 72.0 
139.0 72.0 
82.0 70.0 
232.0 251.0 
292.0 306.0 
267.0 225.0 
152.0 164.0 
152.0 164.0 
139.0 72.0 
82.0 70.0 
232.0 251.0 
292.0 306.0 
267.0 225.0 
152.0 164.0 
152.0 164.0 
139.0 72.0 
82.0 70.0 
232.0 251.0 
292.0 306.0 
267.0 225.0 
152.0 164.0 
152.0 164.0 
139.0 72.0 
82.0 70.0 
292.0 306.0 
232.0 251.0 
267.0 225.0 
152.0 164.0 
139.0 72.0 
139.0 72.0 
82.0 70.0 
292.0 306.0 
232.0 251.0 
267.0 225.0 
139.0 72.0 
152.0 164.0 
82.0 70.0 
232.0 251.0 
292.0 306.0 
267.0 225.0 
139.0 72.0 
152.0 164.0 
139.0 72.0 
82.0 70.0 
292.0 306.0 
232.0 251.0 
267.0 225.0 
139.0 72.0 
139.0 72.0 
82.0 70.0 
232.0 251.0 
292.0 306.0 
267.0 225.0 
139.0 72.0 
139.0 72.0 
152.0 164.0 
89.0 155.0 
162.0 161.0 
232.0 251.0 
292.0 306.0 
267.0 225.0 
139.0 72.0 
139.0 72.0 
152.0 164.0 
82.0 70.0 
292.0 306.0 
232.0 251.0 
267.0 225.0 
139.0 72.0 
152.0 164.0 
82.0 70.0 
232.0 251.0 
292.0 306.0 
267.0 225.0 
139.0 72.0 
152.0 164.0 
152.0 164.0 
139.0 72.0 
82.0 70.0 
232.0 251.0 
292.0 306.0 
267.0 225.0 
139.0 72.0 
139.0 72.0 
152.0 164.0 
82.0 70.0 
292.0 306.0 
232.0 251.0 
267.0 225.0 
152.0 164.0 
139.0 72.0 
139.0 72.0 

0 479 0 
0 84 82 80 78 477 0 
0 477 78 489 80 82 84 0 
0 477 78 489 80 82 0 
0 321 484 0 
0 321 484 0 
0 484 477 0 
0 479 0 
0 84 82 80 78 477 0 
0 477 78 489 80 82 84 0 
0 477 78 489 80 82 0 
0 321 484 0 
0 321 484 0 
0 484 477 0 
0 484 477 0 
0 479 0 
0 84 82 80 78 477 0 
0 477 78 489 80 82 84 0 
0 477 78 489 80 82 0 
0 321 484 0 
0 321 484 0 
0 484 477 0 
0 479 0 
0 84 82 80 78 477 0 
0 477 78 489 80 82 84 0 
0 477 78 489 80 82 0 
0 321 484 0 
0 321 484 0 
0 484 477 0 
0 484 477 0 
0 479 0 
0 84 82 80 78 477 0 
0 477 78 489 80 82 84 0 
0 477 78 489 80 82 0 
0 321 484 0 
0 321 484 0 
0 484 477 0 
0 479 0 
0 477 78 489 80 82 84 0 
0 84 82 80 78 477 0 
0 477 78 489 80 82 0 
0 484 477 0 
0 321 484 0 
0 321 484 0 
0 484 477 0 
0 479 0 
0 477 78 489 80 82 84 0 
0 84 82 80 78 477 0 
0 477 78 489 80 82 0 
0 321 484 0 
0 321 484 0 
0 484 477 0 
0 484 477 0 
0 479 0 
0 84 82 80 78 477 0 
0 477 78 489 80 82 84 0 
0 477 78 489 80 82 0 
0 321 484 0 
0 321 484 0 
0 484 477 0 
0 479 0 
0 84 82 80 78 477 0 
0 477 78 489 80 82 84 0 
0 477 78 489 80 82 0 
0 321 484 0 
0 321 484 0 
0 484 477 0 
0 479 0 
0 84 82 80 78 477 0 
0 477 78 489 80 82 84 0 
0 477 78 489 80 82 0 
0 321 484 0 
0 321 484 0 
0 484 477 0 
0 479 0 
0 477 78 489 80 82 84 0 
0 84 82 80 78 477 0 
0 477 78 489 80 82 0 
0 321 484 0 
0 484 477 0 
0 484 477 0 
0 479 0 
0 477 78 489 80 82 84 0 
0 84 82 80 78 477 0 
0 477 78 489 80 82 0 
0 484 477 0 
0 321 484 0 
0 479 0 
0 84 82 80 78 477 0 
0 477 78 489 80 82 84 0 
0 477 78 489 80 82 0 
0 484 477 0 
0 321 484 0 
0 484 477 0 
0 479 0 
0 477 78 489 80 82 84 0 
0 84 82 80 78 477 0 
0 477 78 489 80 82 0 
0 484 477 0 
0 484 477 0 
0 479 0 
0 84 82 80 78 477 0 
0 477 78 489 80 82 84 0 
0 477 78 489 80 82 0 
0 484 477 0 
0 484 477 0 
0 321 484 0 
0 484 80 0 
0 484 80 477 0 
0 84 82 80 78 477 0 
0 477 78 489 80 82 84 0 
0 477 78 489 80 82 0 
0 484 477 0 
0 484 477 0 
0 321 484 0 
0 479 0 
0 477 78 489 80 82 84 0 
0 84 82 80 78 477 0 
0 477 78 489 80 82 0 
0 484 477 0 
0 321 484 0 
0 479 0 
0 84 82 80 78 477 0 
0 477 78 489 80 82 84 0 
0 477 78 489 80 82 0 
0 484 477 0 
0 321 484 0 
0 321 484 0 
0 484 477 0 
0 479 0 
0 84 82 80 78 477 0 
0 477 78 489 80 82 84 0 
0 477 78 489 80 82 0 
0 484 477 0 
0 484 477 0 
0 321 484 0 
0 479 0 
0 477 78 489 80 82 84 0 
0 84 82 80 78 477 0 
0 477 78 489 80 82 0 
0 321 484 0 
0 484 477 0 
0 484 477 0 
